
Gurobi 8.0.1 (linux64, Python) logging started Sun Oct 28 17:42:13 2018

Academic license - for non-commercial use only
Optimize a model with 89 rows, 78 columns and 236 nonzeros
Model has 36 general constraints
Variable types: 54 continuous, 24 integer (24 binary)
Coefficient statistics:
  Matrix range     [1e+00, 1e+02]
  Objective range  [1e-01, 3e+00]
  Bounds range     [1e+00, 1e+00]
  RHS range        [1e+00, 1e+02]
Presolve added 36 rows and 0 columns
Presolve time: 0.00s
Presolved: 125 rows, 78 columns, 640 nonzeros
Variable types: 18 continuous, 60 integer (60 binary)
Found heuristic solution: objective 15.4000000
Found heuristic solution: objective 12.1000000

Root relaxation: objective 0.000000e+00, 70 iterations, 0.00 seconds

    Nodes    |    Current Node    |     Objective Bounds      |     Work
 Expl Unexpl |  Obj  Depth IntInf | Incumbent    BestBd   Gap | It/Node Time

     0     0    0.00000    0   30   12.10000    0.00000   100%     -    0s
H    0     0                       9.2000000    0.00000   100%     -    0s
H    0     0                       8.7000000    0.00000   100%     -    0s
     0     0    0.00000    0   22    8.70000    0.00000   100%     -    0s
H    0     0                       8.6000000    0.00000   100%     -    0s
H    0     0                       7.7000000    0.00000   100%     -    0s
     0     0    0.00000    0   12    7.70000    0.00000   100%     -    0s
     0     0    0.60000    0   25    7.70000    0.60000  92.2%     -    0s
     0     0    0.60000    0   30    7.70000    0.60000  92.2%     -    0s
     0     0    0.60000    0   29    7.70000    0.60000  92.2%     -    0s
     0     0    0.60000    0   32    7.70000    0.60000  92.2%     -    0s
     0     0    1.86667    0   29    7.70000    1.86667  75.8%     -    0s
     0     0    2.10000    0   34    7.70000    2.10000  72.7%     -    0s
     0     0    4.00000    0   30    7.70000    4.00000  48.1%     -    0s
     0     0    4.10000    0   12    7.70000    4.10000  46.8%     -    0s
     0     2    4.10000    0   12    7.70000    4.10000  46.8%     -    0s

Cutting planes:
  Gomory: 6
  MIR: 9

Explored 255 nodes (2477 simplex iterations) in 0.10 seconds
Thread count was 4 (of 4 available processors)

Solution count 6: 7.7 8.6 8.7 ... 15.4

Optimal solution found (tolerance 1.00e-04)
Best objective 7.700000000000e+00, best bound 7.700000000000e+00, gap 0.0000%

Gurobi 8.0.1 (linux64, Python) logging started Sun Oct 28 17:44:34 2018

Academic license - for non-commercial use only
Optimize a model with 38 rows, 18 columns and 78 nonzeros
Coefficient statistics:
  Matrix range     [1e+00, 1e+00]
  Objective range  [1e-01, 3e+00]
  Bounds range     [0e+00, 0e+00]
  RHS range        [5e-01, 2e+00]
Presolve removed 18 rows and 0 columns
Presolve time: 0.00s
Presolved: 20 rows, 18 columns, 60 nonzeros

Iteration    Objective       Primal Inf.    Dual Inf.      Time
       0    6.6000000e+00   0.000000e+00   0.000000e+00      0s
       0    6.6000000e+00   0.000000e+00   0.000000e+00      0s

Solved in 0 iterations and 0.00 seconds
Optimal objective  6.600000000e+00

Gurobi 8.0.1 (linux64, Python) logging started Sun Oct 28 17:45:00 2018

Academic license - for non-commercial use only

Gurobi 8.0.1 (linux64, Python) logging started Sun Oct 28 17:45:08 2018

Academic license - for non-commercial use only

Gurobi 8.0.1 (linux64, Python) logging started Sun Oct 28 17:45:27 2018

Academic license - for non-commercial use only
Optimize a model with 40 rows, 18 columns and 80 nonzeros
Coefficient statistics:
  Matrix range     [1e+00, 1e+00]
  Objective range  [1e-01, 3e+00]
  Bounds range     [0e+00, 0e+00]
  RHS range        [5e-01, 2e+00]
Presolve removed 23 rows and 2 columns
Presolve time: 0.00s
Presolved: 17 rows, 16 columns, 42 nonzeros

Iteration    Objective       Primal Inf.    Dual Inf.      Time
       0    6.6000000e+00   6.000000e+00   0.000000e+00      0s
       6    6.6000000e+00   0.000000e+00   0.000000e+00      0s

Solved in 6 iterations and 0.00 seconds
Optimal objective  6.600000000e+00

Gurobi 8.0.1 (linux64, Python) logging started Sun Oct 28 17:50:10 2018

Academic license - for non-commercial use only

Gurobi 8.0.1 (linux64, Python) logging started Sun Oct 28 17:50:29 2018

Academic license - for non-commercial use only
Optimize a model with 56 rows, 24 columns and 112 nonzeros
Coefficient statistics:
  Matrix range     [1e+00, 1e+00]
  Objective range  [1e-01, 4e+00]
  Bounds range     [0e+00, 0e+00]
  RHS range        [5e-01, 2e+00]
Presolve removed 40 rows and 6 columns
Presolve time: 0.00s
Presolved: 16 rows, 18 columns, 40 nonzeros

Iteration    Objective       Primal Inf.    Dual Inf.      Time
       0    2.3000000e+01   3.000000e+00   0.000000e+00      0s
       6    2.3800000e+01   0.000000e+00   0.000000e+00      0s

Solved in 6 iterations and 0.00 seconds
Optimal objective  2.380000000e+01

Gurobi 8.0.1 (linux64, Python) logging started Sun Oct 28 17:51:01 2018

Academic license - for non-commercial use only
Optimize a model with 56 rows, 24 columns and 112 nonzeros
Coefficient statistics:
  Matrix range     [1e+00, 1e+00]
  Objective range  [1e-01, 4e+00]
  Bounds range     [0e+00, 0e+00]
  RHS range        [2e+00, 2e+00]
Presolve removed 40 rows and 6 columns
Presolve time: 0.00s
Presolved: 16 rows, 18 columns, 40 nonzeros

Iteration    Objective       Primal Inf.    Dual Inf.      Time
       0    3.7000000e+01   1.000000e+00   0.000000e+00      0s
       2    3.7000000e+01   0.000000e+00   0.000000e+00      0s

Solved in 2 iterations and 0.00 seconds
Optimal objective  3.700000000e+01
